chronos/benchmarks/adpcm_d/adpcm_d.lp
Maximize

14 dSta_0 + 14 d0_2 + 4 d2_3 + 6 d2_25 + 1 d3_4 + 2 d4_5 + 6 d4_6 + 7 d5_7 + 7 d6_7 + 1 d7_8 + 2 d7_9 + 2 d8_9 + 1 d9_10 + 5 d9_11 + 5 d10_11 + 1 d11_12 + 2 d11_13 + 2 d12_13 + 2 d13_14 + 2 d13_15 + 2 d14_15 + 2 d15_16 + 1 d15_17 + 1 d16_17 + 2 d17_18 + 1 d17_19 + 2 d18_20 + 2 d19_20 + 2 d20_21 + 2 d20_22 + 9 d21_24 + 1 d22_23 + 9 d22_24 + 9 d23_24 + 6 d24_25 + 1 d24_4 + 4 d25_1


Subject to


\ === tcfg constraints ===
dSta_0 = 1
b0 - d0_2 = 0
b0 - dSta_0 = 0
b1 - d25_1 = 0
b2 - d2_3 - d2_25 = 0
b2 - d0_2 = 0
b3 - d3_4 = 0
b3 - d2_3 = 0
b4 - d4_5 - d4_6 = 0
b4 - d3_4 - d24_4 = 0
b5 - d5_7 = 0
b5 - d4_5 = 0
b6 - d6_7 = 0
b6 - d4_6 = 0
b7 - d7_8 - d7_9 = 0
b7 - d5_7 - d6_7 = 0
b8 - d8_9 = 0
b8 - d7_8 = 0
b9 - d9_10 - d9_11 = 0
b9 - d7_9 - d8_9 = 0
b10 - d10_11 = 0
b10 - d9_10 = 0
b11 - d11_12 - d11_13 = 0
b11 - d9_11 - d10_11 = 0
b12 - d12_13 = 0
b12 - d11_12 = 0
b13 - d13_14 - d13_15 = 0
b13 - d11_13 - d12_13 = 0
b14 - d14_15 = 0
b14 - d13_14 = 0
b15 - d15_16 - d15_17 = 0
b15 - d13_15 - d14_15 = 0
b16 - d16_17 = 0
b16 - d15_16 = 0
b17 - d17_18 - d17_19 = 0
b17 - d15_17 - d16_17 = 0
b18 - d18_20 = 0
b18 - d17_18 = 0
b19 - d19_20 = 0
b19 - d17_19 = 0
b20 - d20_21 - d20_22 = 0
b20 - d18_20 - d19_20 = 0
b21 - d21_24 = 0
b21 - d20_21 = 0
b22 - d22_23 - d22_24 = 0
b22 - d20_22 = 0
b23 - d23_24 = 0
b23 - d22_23 = 0
b24 - d24_25 - d24_4 = 0
b24 - d21_24 - d22_24 - d23_24 = 0
b25 - d25_1 = 0
b25 - d2_25 - d24_25 = 0


\ === infeasible path constraints ===
b8 + d9_10 <= 1
b21 + d22_23 - b18 - b19 <= 1

b2 = 1
b3 = 1
b4 = 1000
b5 = 500
b6 = 500
b7 = 1000
b9 = 1000
b11 = 1000
b13 = 1000
b15 = 1000
b17 = 1000
b20 = 1000
b24 = 1000
b25 = 1
b0 = 1
b1 = 1

Generals

Sta
b0
d0_2
b1
b2
d2_3
d2_25
b3
d3_4
b4
d4_5
d4_6
b5
d5_7
b6
d6_7
b7
d7_8
d7_9
b8
d8_9
b9
d9_10
d9_11
b10
d10_11
b11
d11_12
d11_13
b12
d12_13
b13
d13_14
d13_15
b14
d14_15
b15
d15_16
d15_17
b16
d16_17
b17
d17_18
d17_19
b18
d18_20
b19
d19_20
b20
d20_21
d20_22
b21
d21_24
b22
d22_23
d22_24
b23
d23_24
b24
d24_25
d24_4
b25
d25_1

End
\ total_cons: 68 	total_vars: 63
